NAME 
OBJSENSE MAX
ROWS
 N  OBJ
 L  packing[0]
 L  packing[1]
 L  packing[2]
 L  packing[3]
 L  packing[4]
 L  packing[5]
 L  packing[6]
 L  packing[7]
 L  packing[8]
 L  packing[9]
 L  packing[10]
 L  packing[11]
 L  packing[12]
 L  packing[13]
 L  packing[14]
 L  packing[15]
 L  packing[16]
 L  packing[17]
 L  packing[18]
 L  packing[19]
 L  packing[20]
 L  packing[21]
 L  packing[22]
 L  packing[23]
 L  packing[24]
 L  packing[25]
 L  packing[26]
 L  packing[27]
 L  packing[28]
 L  packing[29]
 L  packing[30]
 L  packing[31]
 L  packing[32]
 L  packing[33]
 L  packing[34]
 L  packing[35]
 L  packing[36]
 L  packing[37]
 L  packing[38]
 L  packing[39]
 L  packing[40]
 L  packing[41]
 L  packing[42]
 L  packing[43]
 L  packing[44]
 L  packing[45]
 L  packing[46]
 L  packing[47]
 L  packing[48]
 L  packing[49]
 L  R56     
COLUMNS
    MARKER    'MARKER'                 'INTORG'
    x[1]      OBJ       161
    x[1]      packing[0]  60
    x[1]      packing[1]  18
    x[1]      packing[4]  137
    x[1]      packing[6]  19
    x[1]      packing[7]  154
    x[1]      packing[8]  5
    x[1]      packing[10]  197
    x[1]      packing[11]  36
    x[1]      packing[12]  44
    x[1]      packing[14]  86
    x[1]      packing[16]  62
    x[1]      packing[17]  118
    x[1]      packing[18]  74
    x[1]      packing[21]  146
    x[1]      packing[22]  136
    x[1]      packing[23]  100
    x[1]      packing[24]  49
    x[1]      packing[25]  119
    x[1]      packing[26]  25
    x[1]      packing[29]  36
    x[1]      packing[30]  141
    x[1]      packing[33]  88
    x[1]      packing[34]  49
    x[1]      packing[35]  78
    x[1]      packing[36]  1
    x[1]      packing[38]  102
    x[1]      packing[39]  3
    x[1]      packing[40]  5
    x[1]      packing[41]  26
    x[1]      packing[42]  198
    x[1]      packing[43]  199
    x[1]      packing[45]  68
    x[1]      R56       1
    x[2]      OBJ       192
    x[2]      packing[1]  73
    x[2]      packing[3]  97
    x[2]      packing[5]  39
    x[2]      packing[6]  103
    x[2]      packing[8]  82
    x[2]      packing[10]  84
    x[2]      packing[11]  168
    x[2]      packing[13]  24
    x[2]      packing[14]  71
    x[2]      packing[15]  177
    x[2]      packing[18]  44
    x[2]      packing[19]  99
    x[2]      packing[21]  14
    x[2]      packing[22]  91
    x[2]      packing[23]  150
    x[2]      packing[24]  51
    x[2]      packing[26]  94
    x[2]      packing[27]  15
    x[2]      packing[28]  129
    x[2]      packing[29]  28
    x[2]      packing[31]  100
    x[2]      packing[34]  156
    x[2]      packing[35]  112
    x[2]      packing[37]  37
    x[2]      packing[38]  186
    x[2]      packing[40]  14
    x[2]      packing[41]  126
    x[2]      packing[42]  125
    x[2]      packing[43]  151
    x[2]      packing[44]  178
    x[2]      packing[45]  149
    x[2]      packing[46]  46
    x[2]      packing[47]  118
    x[2]      packing[48]  155
    x[2]      packing[49]  16
    x[2]      R56       1
    x[3]      OBJ       187
    x[3]      packing[0]  184
    x[3]      packing[1]  78
    x[3]      packing[2]  94
    x[3]      packing[4]  76
    x[3]      packing[5]  24
    x[3]      packing[6]  164
    x[3]      packing[7]  137
    x[3]      packing[8]  14
    x[3]      packing[9]  144
    x[3]      packing[11]  171
    x[3]      packing[12]  18
    x[3]      packing[15]  11
    x[3]      packing[16]  66
    x[3]      packing[17]  35
    x[3]      packing[18]  175
    x[3]      packing[19]  156
    x[3]      packing[20]  124
    x[3]      packing[23]  71
    x[3]      packing[24]  146
    x[3]      packing[25]  188
    x[3]      packing[26]  125
    x[3]      packing[27]  142
    x[3]      packing[28]  13
    x[3]      packing[29]  31
    x[3]      packing[30]  74
    x[3]      packing[31]  63
    x[3]      packing[32]  191
    x[3]      packing[34]  30
    x[3]      packing[37]  118
    x[3]      packing[39]  170
    x[3]      packing[41]  134
    x[3]      packing[42]  41
    x[3]      packing[44]  25
    x[3]      packing[45]  69
    x[3]      packing[47]  45
    x[3]      packing[49]  132
    x[4]      OBJ       102
    x[4]      packing[0]  102
    x[4]      packing[4]  172
    x[4]      packing[6]  47
    x[4]      packing[7]  122
    x[4]      packing[8]  41
    x[4]      packing[9]  7
    x[4]      packing[11]  187
    x[4]      packing[12]  54
    x[4]      packing[14]  137
    x[4]      packing[15]  69
    x[4]      packing[16]  157
    x[4]      packing[18]  121
    x[4]      packing[19]  58
    x[4]      packing[20]  19
    x[4]      packing[22]  125
    x[4]      packing[23]  64
    x[4]      packing[25]  112
    x[4]      packing[26]  12
    x[4]      packing[27]  78
    x[4]      packing[29]  117
    x[4]      packing[30]  62
    x[4]      packing[31]  184
    x[4]      packing[32]  31
    x[4]      packing[33]  56
    x[4]      packing[39]  88
    x[4]      packing[40]  46
    x[4]      packing[41]  89
    x[4]      packing[42]  115
    x[4]      packing[45]  33
    x[4]      packing[46]  113
    x[4]      packing[47]  103
    x[4]      R56       1
    x[5]      OBJ       22
    x[5]      packing[2]  194
    x[5]      packing[3]  12
    x[5]      packing[4]  171
    x[5]      packing[5]  187
    x[5]      packing[6]  27
    x[5]      packing[9]  159
    x[5]      packing[10]  61
    x[5]      packing[12]  86
    x[5]      packing[13]  76
    x[5]      packing[14]  180
    x[5]      packing[15]  3
    x[5]      packing[16]  36
    x[5]      packing[18]  66
    x[5]      packing[20]  158
    x[5]      packing[21]  72
    x[5]      packing[23]  69
    x[5]      packing[24]  95
    x[5]      packing[25]  56
    x[5]      packing[26]  54
    x[5]      packing[27]  100
    x[5]      packing[28]  144
    x[5]      packing[29]  10
    x[5]      packing[30]  60
    x[5]      packing[31]  32
    x[5]      packing[32]  189
    x[5]      packing[34]  45
    x[5]      packing[35]  168
    x[5]      packing[36]  145
    x[5]      packing[38]  47
    x[5]      packing[39]  29
    x[5]      packing[41]  41
    x[5]      packing[44]  194
    x[5]      packing[45]  49
    x[5]      packing[48]  186
    x[5]      packing[49]  57
    x[6]      OBJ       18
    x[6]      packing[0]  8
    x[6]      packing[1]  146
    x[6]      packing[2]  173
    x[6]      packing[3]  181
    x[6]      packing[4]  95
    x[6]      packing[5]  168
    x[6]      packing[6]  14
    x[6]      packing[7]  50
    x[6]      packing[8]  159
    x[6]      packing[10]  110
    x[6]      packing[11]  53
    x[6]      packing[12]  198
    x[6]      packing[13]  69
    x[6]      packing[14]  165
    x[6]      packing[15]  62
    x[6]      packing[20]  17
    x[6]      packing[21]  33
    x[6]      packing[22]  179
    x[6]      packing[23]  17
    x[6]      packing[24]  39
    x[6]      packing[25]  55
    x[6]      packing[26]  14
    x[6]      packing[27]  137
    x[6]      packing[28]  96
    x[6]      packing[29]  185
    x[6]      packing[30]  101
    x[6]      packing[32]  53
    x[6]      packing[33]  85
    x[6]      packing[34]  165
    x[6]      packing[36]  45
    x[6]      packing[38]  15
    x[6]      packing[39]  174
    x[6]      packing[40]  181
    x[6]      packing[41]  182
    x[6]      packing[42]  189
    x[6]      packing[43]  53
    x[6]      packing[44]  31
    x[6]      packing[45]  183
    x[6]      packing[46]  199
    x[6]      packing[47]  84
    x[7]      OBJ       43
    x[7]      packing[0]  73
    x[7]      packing[1]  37
    x[7]      packing[3]  102
    x[7]      packing[4]  76
    x[7]      packing[5]  62
    x[7]      packing[6]  45
    x[7]      packing[7]  151
    x[7]      packing[8]  149
    x[7]      packing[10]  110
    x[7]      packing[11]  84
    x[7]      packing[12]  58
    x[7]      packing[13]  176
    x[7]      packing[14]  152
    x[7]      packing[15]  41
    x[7]      packing[17]  117
    x[7]      packing[19]  51
    x[7]      packing[22]  103
    x[7]      packing[23]  137
    x[7]      packing[24]  158
    x[7]      packing[25]  17
    x[7]      packing[26]  104
    x[7]      packing[27]  133
    x[7]      packing[28]  184
    x[7]      packing[29]  172
    x[7]      packing[30]  145
    x[7]      packing[31]  29
    x[7]      packing[32]  128
    x[7]      packing[33]  79
    x[7]      packing[34]  183
    x[7]      packing[35]  121
    x[7]      packing[36]  99
    x[7]      packing[37]  122
    x[7]      packing[39]  124
    x[7]      packing[40]  87
    x[7]      packing[43]  188
    x[7]      packing[45]  165
    x[7]      packing[48]  141
    x[7]      packing[49]  178
    x[8]      OBJ       44
    x[8]      packing[0]  107
    x[8]      packing[1]  199
    x[8]      packing[3]  190
    x[8]      packing[4]  40
    x[8]      packing[10]  11
    x[8]      packing[11]  167
    x[8]      packing[12]  127
    x[8]      packing[13]  168
    x[8]      packing[14]  136
    x[8]      packing[16]  63
    x[8]      packing[17]  151
    x[8]      packing[18]  13
    x[8]      packing[20]  26
    x[8]      packing[21]  193
    x[8]      packing[22]  1
    x[8]      packing[23]  122
    x[8]      packing[24]  145
    x[8]      packing[25]  131
    x[8]      packing[26]  35
    x[8]      packing[27]  61
    x[8]      packing[29]  157
    x[8]      packing[30]  164
    x[8]      packing[31]  127
    x[8]      packing[32]  55
    x[8]      packing[33]  104
    x[8]      packing[36]  93
    x[8]      packing[37]  116
    x[8]      packing[38]  99
    x[8]      packing[39]  50
    x[8]      packing[41]  130
    x[8]      packing[43]  79
    x[8]      packing[44]  81
    x[8]      packing[45]  176
    x[8]      packing[46]  181
    x[8]      packing[47]  98
    x[9]      OBJ       63
    x[9]      packing[0]  116
    x[9]      packing[2]  119
    x[9]      packing[3]  126
    x[9]      packing[4]  87
    x[9]      packing[5]  98
    x[9]      packing[6]  15
    x[9]      packing[7]  162
    x[9]      packing[8]  32
    x[9]      packing[11]  134
    x[9]      packing[12]  140
    x[9]      packing[13]  20
    x[9]      packing[14]  19
    x[9]      packing[15]  104
    x[9]      packing[16]  155
    x[9]      packing[17]  172
    x[9]      packing[18]  34
    x[9]      packing[19]  111
    x[9]      packing[20]  164
    x[9]      packing[22]  129
    x[9]      packing[24]  115
    x[9]      packing[25]  167
    x[9]      packing[29]  101
    x[9]      packing[30]  126
    x[9]      packing[31]  187
    x[9]      packing[32]  33
    x[9]      packing[33]  21
    x[9]      packing[34]  197
    x[9]      packing[35]  129
    x[9]      packing[36]  156
    x[9]      packing[37]  194
    x[9]      packing[40]  171
    x[9]      packing[42]  78
    x[9]      packing[43]  105
    x[9]      packing[44]  157
    x[9]      packing[45]  27
    x[9]      packing[46]  34
    x[9]      packing[47]  193
    x[9]      packing[48]  9
    x[9]      packing[49]  114
    x[10]     OBJ       167
    x[10]     packing[0]  26
    x[10]     packing[1]  161
    x[10]     packing[2]  48
    x[10]     packing[3]  77
    x[10]     packing[4]  116
    x[10]     packing[5]  167
    x[10]     packing[6]  90
    x[10]     packing[7]  55
    x[10]     packing[8]  160
    x[10]     packing[9]  45
    x[10]     packing[10]  99
    x[10]     packing[11]  178
    x[10]     packing[12]  64
    x[10]     packing[13]  75
    x[10]     packing[16]  77
    x[10]     packing[20]  136
    x[10]     packing[21]  137
    x[10]     packing[23]  39
    x[10]     packing[24]  28
    x[10]     packing[25]  60
    x[10]     packing[26]  111
    x[10]     packing[27]  96
    x[10]     packing[28]  181
    x[10]     packing[29]  77
    x[10]     packing[30]  32
    x[10]     packing[31]  61
    x[10]     packing[32]  37
    x[10]     packing[33]  85
    x[10]     packing[37]  120
    x[10]     packing[38]  164
    x[10]     packing[39]  60
    x[10]     packing[40]  70
    x[10]     packing[41]  113
    x[10]     packing[43]  160
    x[10]     packing[45]  78
    x[10]     packing[47]  123
    x[10]     packing[48]  136
    x[10]     packing[49]  25
    x[11]     OBJ       126
    x[11]     packing[1]  133
    x[11]     packing[3]  160
    x[11]     packing[4]  125
    x[11]     packing[5]  158
    x[11]     packing[6]  53
    x[11]     packing[8]  53
    x[11]     packing[9]  13
    x[11]     packing[10]  49
    x[11]     packing[11]  144
    x[11]     packing[12]  175
    x[11]     packing[15]  121
    x[11]     packing[16]  75
    x[11]     packing[17]  14
    x[11]     packing[21]  144
    x[11]     packing[22]  153
    x[11]     packing[24]  69
    x[11]     packing[25]  118
    x[11]     packing[26]  136
    x[11]     packing[27]  130
    x[11]     packing[28]  153
    x[11]     packing[29]  59
    x[11]     packing[30]  19
    x[11]     packing[32]  199
    x[11]     packing[34]  181
    x[11]     packing[36]  149
    x[11]     packing[37]  168
    x[11]     packing[39]  187
    x[11]     packing[40]  133
    x[11]     packing[41]  68
    x[11]     packing[42]  13
    x[11]     packing[43]  149
    x[11]     packing[44]  13
    x[11]     packing[45]  99
    x[11]     packing[46]  156
    x[11]     packing[48]  128
    x[11]     packing[49]  29
    x[11]     R56       1
    x[12]     OBJ       77
    x[12]     packing[0]  88
    x[12]     packing[1]  60
    x[12]     packing[2]  139
    x[12]     packing[3]  76
    x[12]     packing[4]  166
    x[12]     packing[5]  27
    x[12]     packing[6]  63
    x[12]     packing[7]  156
    x[12]     packing[8]  141
    x[12]     packing[9]  161
    x[12]     packing[10]  115
    x[12]     packing[11]  107
    x[12]     packing[12]  106
    x[12]     packing[14]  28
    x[12]     packing[15]  125
    x[12]     packing[17]  86
    x[12]     packing[20]  145
    x[12]     packing[21]  163
    x[12]     packing[23]  52
    x[12]     packing[25]  192
    x[12]     packing[26]  161
    x[12]     packing[29]  176
    x[12]     packing[31]  18
    x[12]     packing[32]  58
    x[12]     packing[33]  80
    x[12]     packing[34]  58
    x[12]     packing[35]  141
    x[12]     packing[37]  190
    x[12]     packing[38]  172
    x[12]     packing[39]  138
    x[12]     packing[41]  26
    x[12]     packing[42]  76
    x[12]     packing[43]  74
    x[12]     packing[44]  45
    x[12]     packing[45]  87
    x[12]     packing[46]  102
    x[12]     packing[48]  185
    x[13]     OBJ       3
    x[13]     packing[1]  7
    x[13]     packing[2]  159
    x[13]     packing[3]  155
    x[13]     packing[5]  67
    x[13]     packing[6]  56
    x[13]     packing[7]  96
    x[13]     packing[8]  57
    x[13]     packing[9]  135
    x[13]     packing[10]  81
    x[13]     packing[13]  36
    x[13]     packing[14]  146
    x[13]     packing[15]  148
    x[13]     packing[16]  86
    x[13]     packing[17]  60
    x[13]     packing[18]  154
    x[13]     packing[19]  150
    x[13]     packing[20]  169
    x[13]     packing[21]  41
    x[13]     packing[22]  157
    x[13]     packing[23]  11
    x[13]     packing[24]  60
    x[13]     packing[25]  20
    x[13]     packing[26]  23
    x[13]     packing[27]  137
    x[13]     packing[28]  142
    x[13]     packing[29]  149
    x[13]     packing[30]  190
    x[13]     packing[31]  87
    x[13]     packing[32]  21
    x[13]     packing[33]  145
    x[13]     packing[34]  117
    x[13]     packing[35]  108
    x[13]     packing[36]  184
    x[13]     packing[37]  13
    x[13]     packing[38]  128
    x[13]     packing[39]  44
    x[13]     packing[40]  160
    x[13]     packing[41]  22
    x[13]     packing[42]  8
    x[13]     packing[43]  107
    x[13]     packing[45]  175
    x[13]     packing[49]  10
    x[14]     OBJ       124
    x[14]     packing[0]  28
    x[14]     packing[2]  40
    x[14]     packing[3]  146
    x[14]     packing[4]  197
    x[14]     packing[6]  44
    x[14]     packing[7]  105
    x[14]     packing[8]  4
    x[14]     packing[9]  172
    x[14]     packing[10]  198
    x[14]     packing[11]  16
    x[14]     packing[12]  61
    x[14]     packing[13]  112
    x[14]     packing[14]  178
    x[14]     packing[15]  124
    x[14]     packing[16]  84
    x[14]     packing[17]  148
    x[14]     packing[18]  94
    x[14]     packing[19]  9
    x[14]     packing[20]  24
    x[14]     packing[21]  121
    x[14]     packing[22]  14
    x[14]     packing[23]  182
    x[14]     packing[25]  125
    x[14]     packing[26]  72
    x[14]     packing[27]  84
    x[14]     packing[28]  11
    x[14]     packing[29]  166
    x[14]     packing[30]  155
    x[14]     packing[34]  99
    x[14]     packing[35]  148
    x[14]     packing[36]  94
    x[14]     packing[37]  193
    x[14]     packing[39]  63
    x[14]     packing[41]  197
    x[14]     packing[42]  190
    x[14]     packing[43]  109
    x[14]     packing[44]  166
    x[14]     packing[45]  112
    x[14]     packing[47]  126
    x[14]     packing[48]  112
    x[14]     packing[49]  76
    x[14]     R56       1
    x[15]     OBJ       122
    x[15]     packing[0]  107
    x[15]     packing[2]  76
    x[15]     packing[3]  74
    x[15]     packing[4]  16
    x[15]     packing[5]  13
    x[15]     packing[7]  185
    x[15]     packing[9]  69
    x[15]     packing[10]  69
    x[15]     packing[11]  95
    x[15]     packing[12]  99
    x[15]     packing[13]  199
    x[15]     packing[14]  54
    x[15]     packing[15]  91
    x[15]     packing[16]  184
    x[15]     packing[17]  37
    x[15]     packing[18]  192
    x[15]     packing[19]  104
    x[15]     packing[20]  100
    x[15]     packing[21]  134
    x[15]     packing[22]  82
    x[15]     packing[23]  192
    x[15]     packing[24]  100
    x[15]     packing[27]  60
    x[15]     packing[30]  57
    x[15]     packing[31]  142
    x[15]     packing[32]  151
    x[15]     packing[33]  195
    x[15]     packing[34]  40
    x[15]     packing[38]  109
    x[15]     packing[39]  43
    x[15]     packing[40]  146
    x[15]     packing[41]  100
    x[15]     packing[42]  10
    x[15]     packing[43]  8
    x[15]     packing[44]  163
    x[15]     packing[45]  69
    x[15]     packing[46]  199
    x[15]     packing[47]  158
    x[15]     packing[48]  134
    x[15]     packing[49]  43
    x[16]     OBJ       85
    x[16]     packing[0]  40
    x[16]     packing[2]  102
    x[16]     packing[3]  148
    x[16]     packing[5]  161
    x[16]     packing[6]  65
    x[16]     packing[7]  148
    x[16]     packing[8]  117
    x[16]     packing[10]  166
    x[16]     packing[11]  55
    x[16]     packing[14]  148
    x[16]     packing[15]  95
    x[16]     packing[16]  87
    x[16]     packing[17]  44
    x[16]     packing[18]  16
    x[16]     packing[20]  152
    x[16]     packing[21]  188
    x[16]     packing[22]  137
    x[16]     packing[25]  88
    x[16]     packing[26]  15
    x[16]     packing[28]  160
    x[16]     packing[30]  14
    x[16]     packing[31]  23
    x[16]     packing[32]  6
    x[16]     packing[34]  147
    x[16]     packing[35]  71
    x[16]     packing[36]  73
    x[16]     packing[37]  66
    x[16]     packing[41]  184
    x[16]     packing[42]  110
    x[16]     packing[44]  120
    x[16]     packing[45]  110
    x[16]     packing[46]  16
    x[16]     packing[47]  74
    x[16]     packing[48]  195
    x[17]     OBJ       197
    x[17]     packing[0]  98
    x[17]     packing[1]  85
    x[17]     packing[2]  83
    x[17]     packing[5]  81
    x[17]     packing[6]  137
    x[17]     packing[7]  17
    x[17]     packing[8]  130
    x[17]     packing[9]  154
    x[17]     packing[10]  87
    x[17]     packing[12]  80
    x[17]     packing[13]  83
    x[17]     packing[14]  122
    x[17]     packing[16]  170
    x[17]     packing[17]  119
    x[17]     packing[18]  85
    x[17]     packing[19]  138
    x[17]     packing[22]  45
    x[17]     packing[23]  7
    x[17]     packing[24]  186
    x[17]     packing[25]  58
    x[17]     packing[26]  191
    x[17]     packing[27]  24
    x[17]     packing[28]  47
    x[17]     packing[29]  194
    x[17]     packing[30]  194
    x[17]     packing[32]  97
    x[17]     packing[35]  195
    x[17]     packing[36]  63
    x[17]     packing[38]  154
    x[17]     packing[40]  149
    x[17]     packing[41]  190
    x[17]     packing[44]  192
    x[17]     packing[45]  92
    x[17]     packing[46]  33
    x[17]     packing[47]  114
    x[17]     packing[48]  154
    x[17]     packing[49]  114
    x[18]     OBJ       194
    x[18]     packing[0]  114
    x[18]     packing[2]  178
    x[18]     packing[3]  95
    x[18]     packing[4]  44
    x[18]     packing[5]  196
    x[18]     packing[6]  73
    x[18]     packing[8]  133
    x[18]     packing[9]  38
    x[18]     packing[10]  62
    x[18]     packing[11]  9
    x[18]     packing[12]  138
    x[18]     packing[13]  80
    x[18]     packing[14]  128
    x[18]     packing[15]  158
    x[18]     packing[16]  54
    x[18]     packing[17]  177
    x[18]     packing[18]  135
    x[18]     packing[20]  71
    x[18]     packing[21]  119
    x[18]     packing[22]  16
    x[18]     packing[23]  192
    x[18]     packing[24]  52
    x[18]     packing[25]  112
    x[18]     packing[26]  23
    x[18]     packing[27]  19
    x[18]     packing[29]  132
    x[18]     packing[31]  75
    x[18]     packing[32]  81
    x[18]     packing[33]  134
    x[18]     packing[35]  151
    x[18]     packing[39]  14
    x[18]     packing[40]  175
    x[18]     packing[42]  100
    x[18]     packing[43]  34
    x[18]     packing[44]  31
    x[18]     packing[46]  153
    x[18]     packing[48]  33
    x[18]     packing[49]  196
    x[18]     R56       1
    x[19]     OBJ       5
    x[19]     packing[1]  148
    x[19]     packing[2]  134
    x[19]     packing[5]  73
    x[19]     packing[7]  111
    x[19]     packing[8]  18
    x[19]     packing[9]  159
    x[19]     packing[10]  55
    x[19]     packing[11]  66
    x[19]     packing[12]  49
    x[19]     packing[13]  123
    x[19]     packing[14]  99
    x[19]     packing[16]  181
    x[19]     packing[20]  122
    x[19]     packing[21]  138
    x[19]     packing[23]  141
    x[19]     packing[25]  33
    x[19]     packing[26]  57
    x[19]     packing[27]  115
    x[19]     packing[28]  6
    x[19]     packing[29]  188
    x[19]     packing[30]  164
    x[19]     packing[33]  167
    x[19]     packing[34]  146
    x[19]     packing[35]  73
    x[19]     packing[36]  179
    x[19]     packing[38]  63
    x[19]     packing[40]  98
    x[19]     packing[41]  46
    x[19]     packing[43]  62
    x[19]     packing[44]  178
    x[19]     packing[45]  136
    x[19]     packing[47]  111
    x[19]     packing[49]  4
    x[20]     OBJ       32
    x[20]     packing[0]  187
    x[20]     packing[1]  58
    x[20]     packing[2]  188
    x[20]     packing[3]  28
    x[20]     packing[4]  117
    x[20]     packing[5]  127
    x[20]     packing[6]  172
    x[20]     packing[7]  81
    x[20]     packing[8]  12
    x[20]     packing[9]  112
    x[20]     packing[11]  73
    x[20]     packing[12]  148
    x[20]     packing[13]  63
    x[20]     packing[14]  75
    x[20]     packing[15]  184
    x[20]     packing[16]  74
    x[20]     packing[17]  138
    x[20]     packing[19]  139
    x[20]     packing[21]  172
    x[20]     packing[22]  56
    x[20]     packing[23]  134
    x[20]     packing[24]  153
    x[20]     packing[25]  48
    x[20]     packing[26]  43
    x[20]     packing[28]  100
    x[20]     packing[29]  161
    x[20]     packing[30]  58
    x[20]     packing[32]  18
    x[20]     packing[34]  24
    x[20]     packing[35]  126
    x[20]     packing[36]  97
    x[20]     packing[37]  161
    x[20]     packing[38]  74
    x[20]     packing[40]  74
    x[20]     packing[42]  86
    x[20]     packing[43]  54
    x[20]     packing[45]  110
    x[20]     packing[47]  190
    x[20]     packing[48]  6
    MARKER    'MARKER'                 'INTEND'
RHS
    RHS1      packing[0]  669
    RHS1      packing[1]  602
    RHS1      packing[2]  864
    RHS1      packing[3]  834
    RHS1      packing[4]  818
    RHS1      packing[5]  824
    RHS1      packing[6]  594
    RHS1      packing[7]  865
    RHS1      packing[8]  654
    RHS1      packing[9]  684
    RHS1      packing[10]  777
    RHS1      packing[11]  872
    RHS1      packing[12]  823
    RHS1      packing[13]  652
    RHS1      packing[14]  962
    RHS1      packing[15]  757
    RHS1      packing[16]  806
    RHS1      packing[17]  708
    RHS1      packing[18]  602
    RHS1      packing[19]  508
    RHS1      packing[20]  714
    RHS1      packing[21]  908
    RHS1      packing[22]  712
    RHS1      packing[23]  840
    RHS1      packing[24]  723
    RHS1      packing[25]  850
    RHS1      packing[26]  648
    RHS1      packing[27]  666
    RHS1      packing[28]  683
    RHS1      packing[29]  1070
    RHS1      packing[30]  878
    RHS1      packing[31]  564
    RHS1      packing[32]  674
    RHS1      packing[33]  620
    RHS1      packing[34]  819
    RHS1      packing[35]  811
    RHS1      packing[36]  689
    RHS1      packing[37]  749
    RHS1      packing[38]  657
    RHS1      packing[39]  594
    RHS1      packing[40]  755
    RHS1      packing[41]  837
    RHS1      packing[42]  670
    RHS1      packing[43]  766
    RHS1      packing[44]  787
    RHS1      packing[45]  994
    RHS1      packing[46]  616
    RHS1      packing[47]  769
    RHS1      packing[48]  787
    RHS1      packing[49]  497
    RHS1      R56       5
BOUNDS
 BV BND1      x[1]    
 BV BND1      x[2]    
 BV BND1      x[3]    
 BV BND1      x[4]    
 BV BND1      x[5]    
 BV BND1      x[6]    
 BV BND1      x[7]    
 BV BND1      x[8]    
 BV BND1      x[9]    
 BV BND1      x[10]   
 BV BND1      x[11]   
 BV BND1      x[12]   
 BV BND1      x[13]   
 BV BND1      x[14]   
 BV BND1      x[15]   
 BV BND1      x[16]   
 BV BND1      x[17]   
 BV BND1      x[18]   
 BV BND1      x[19]   
 BV BND1      x[20]   
ENDATA
